# Solution for model GasLib-40
# Objective value = 5.0519663076367813e+01
loadshed[innode_1] 0
loadshed[innode_2] 0
loadshed[innode_3] 0
loadshed[innode_4] 0
loadshed[innode_5] 0
loadshed[innode_6] 0
loadshed[innode_7] 0
loadshed[innode_8] 0
loadshed[source_1] -5.1810802619463692e-02
loadshed[source_2] 1.0381827642291852e-01
loadshed[source_3] 2.6755463834221827e-01
loadshed[sink_1] 5.0616066739771570e-01
loadshed[sink_2] 0
loadshed[sink_3] 0
loadshed[sink_4] 0
loadshed[sink_5] 0
loadshed[sink_6] 0
loadshed[sink_7] 0
loadshed[sink_8] 0
loadshed[sink_9] 0
loadshed[sink_10] 0
loadshed[sink_11] 0
loadshed[sink_12] 1
loadshed[sink_13] 0
loadshed[sink_14] 0
loadshed[sink_15] 0
loadshed[sink_16] 0
loadshed[sink_17] 0
loadshed[sink_18] 0
loadshed[sink_19] 0
loadshed[sink_20] 0
loadshed[sink_21] 1
loadshed[sink_22] 0
loadshed[sink_23] 0
loadshed[sink_24] 5.8293975001076193e-01
loadshed[sink_25] 0
loadshed[sink_26] 0
loadshed[sink_27] 0
loadshed[sink_28] 0
loadshed[sink_29] 0
flow[source_1,sink_3] 1.6628106195577840e+02
flow[innode_1,sink_16] 1.6354166666666970e+01
flow[innode_6,sink_13] -1.3133240148562564e+00
flow[sink_13,sink_14] -1.7667490681522924e+01
flow[sink_14,sink_10] -3.4021657348189592e+01
flow[sink_25,sink_26] 0
flow[sink_26,sink_9] 7.3492997418599870e+01
flow[sink_9,sink_18] 57.1388307519332
flow[sink_26,sink_4] -8.9847164085266556e+01
flow[sink_4,sink_20] -1.0323840926494940e+02
flow[sink_18,sink_6] 4.0784664085266527e+01
flow[sink_25,innode_8] -1.3357272862244204e+02
flow[sink_6,sink_7] 0
flow[sink_6,sink_22] 2.4430497418599860e+01
flow[sink_7,sink_24] 6.8206728383656650e+00
flow[sink_22,sink_1] 8.0763307519331917e+00
flow[sink_24,sink_21] 0
flow[sink_21,sink_12] 0
flow[sink_7,sink_5] -2.3174839505032338e+01
flow[sink_5,sink_17] -3.9529006171699010e+01
flow[sink_17,sink_4] 2.9629214869838165e+00
flow[sink_17,sink_8] -5.8846094325349483e+01
flow[sink_3,sink_23] 16.3541666666697
flow[sink_8,sink_20] -7.5200260992016155e+01
flow[sink_25,sink_20] 1.9479283692363219e+02
flow[sink_25,sink_15] -7.6260950953000616e+01
flow[sink_15,sink_29] -5.2902651865149977e+01
flow[sink_29,sink_28] 1.6354166666667879e+01
flow[sink_29,sink_2] 5.6066632421183982e+01
flow[sink_2,sink_15] 3.9712465754517311e+01
flow[sink_29,innode_7] -1.4167761761966847e+02
flow[innode_4,sink_19] 4.4744788678749323e+01
flow[sink_19,innode_3] 40.5447180878792
flow[innode_4,innode_5] 71.0477020027743
flow[sink_27,innode_5] -71.0477020027743
flow[sink_27,sink_19] 5.4693535336107637e+01
flow[sink_10,sink_11] 3.2708333333333641e+01
flow[sink_10,innode_2] -42.5394392603107
flow[sink_10,innode_3] -40.5447180878792
flow[innode_6,sink_25] 1.3133240148562564e+00
flow[sink_11,innode_1] 1.6354166666666970e+01
flow[sink_19,innode_2] 42.5394392603107
flow[source_3,innode_4] 1.1579249068152362e+02
flow[source_2,innode_7] 1.4167761761966847e+02
flow[sink_3,innode_8] 1.3357272862244204e+02
pressure[innode_1] 7.6800438234103211e+01
pressure[innode_2] 79.2005246002525
pressure[innode_3] 7.9110742913238155e+01
pressure[innode_4] 81.01325
pressure[innode_5] 8.0964379644205565e+01
pressure[innode_6] 7.5304105305182347e+01
pressure[innode_7] 81.01325
pressure[innode_8] 8.0457435931549909e+01
pressure[source_1] 81.01325
pressure[source_2] 81.01325
pressure[source_3] 81.01325
pressure[sink_1] 1.0132500000000002e+00
pressure[sink_2] 7.5803697675842159e+01
pressure[sink_3] 8.0457435931549909e+01
pressure[sink_4] 2.1292038853037113e+01
pressure[sink_5] 1.8460646706409690e+01
pressure[sink_6] 2.3133671380975676e+00
pressure[sink_7] 8.8224121837793632e+00
pressure[sink_8] 23.6256879596272
pressure[sink_9] 5.4698923006867650e+00
pressure[sink_10] 7.6952139541706757e+01
pressure[sink_11] 7.6800438234103211e+01
pressure[sink_12] 1.01325
pressure[sink_13] 7.5311345440999418e+01
pressure[sink_14] 7.5342962920511440e+01
pressure[sink_15] 7.5674045227640136e+01
pressure[sink_16] 7.5778788399285531e+01
pressure[sink_17] 2.1405271942338036e+01
pressure[sink_18] 3.4024391010773449e+00
pressure[sink_19] 79.2005246002525
pressure[sink_20] 2.8866088589117997e+01
pressure[sink_21] 1.01325
pressure[sink_22] 1.5385810433034930e+00
pressure[sink_23] 8.0292717919890123e+01
pressure[sink_24] 1.01325
pressure[sink_25] 7.5304105305182347e+01
pressure[sink_26] 9.8686378763949119e+00
pressure[sink_27] 8.0374814999619858e+01
pressure[sink_28] 7.6928646476486051e+01
pressure[sink_29] 7.7223928750103227e+01
interdiction[source_1,sink_3] 0
interdiction[innode_1,sink_16] 0
interdiction[innode_6,sink_13] 0
interdiction[sink_13,sink_14] 0
interdiction[sink_14,sink_10] 0
interdiction[sink_25,sink_26] 1
interdiction[sink_26,sink_9] 0
interdiction[sink_9,sink_18] 0
interdiction[sink_26,sink_4] 0
interdiction[sink_4,sink_20] 0
interdiction[sink_18,sink_6] 0
interdiction[sink_25,innode_8] 0
interdiction[sink_6,sink_7] 1
interdiction[sink_6,sink_22] 0
interdiction[sink_7,sink_24] 0
interdiction[sink_22,sink_1] 0
interdiction[sink_24,sink_21] 0
interdiction[sink_21,sink_12] 0
interdiction[sink_7,sink_5] 0
interdiction[sink_5,sink_17] 0
interdiction[sink_17,sink_4] 0
interdiction[sink_17,sink_8] 0
interdiction[sink_3,sink_23] 0
interdiction[sink_8,sink_20] 0
interdiction[sink_25,sink_20] 0
interdiction[sink_25,sink_15] 0
interdiction[sink_15,sink_29] 0
interdiction[sink_29,sink_28] 0
interdiction[sink_29,sink_2] 0
interdiction[sink_2,sink_15] 0
interdiction[sink_29,innode_7] 0
interdiction[innode_4,sink_19] 0
interdiction[sink_19,innode_3] 0
interdiction[innode_4,innode_5] 0
interdiction[sink_27,innode_5] 0
interdiction[sink_27,sink_19] 0
interdiction[sink_10,sink_11] 0
interdiction[sink_10,innode_2] 0
interdiction[sink_10,innode_3] 0
interdiction[innode_6,sink_25] 0
interdiction[sink_11,innode_1] 0
interdiction[sink_19,innode_2] 0
interdiction[source_3,innode_4] 0
interdiction[source_2,innode_7] 0
interdiction[sink_3,innode_8] 0
WCcheckFlow[source_1,sink_3] 39
WCcheckFlow[innode_1,sink_16] 1
WCcheckFlow[innode_6,sink_13] 13
WCcheckFlow[sink_13,sink_14] 12
WCcheckFlow[sink_14,sink_10] 11
WCcheckFlow[sink_25,sink_26] 0
WCcheckFlow[sink_26,sink_9] 5
WCcheckFlow[sink_9,sink_18] 4
WCcheckFlow[sink_26,sink_4] -6
WCcheckFlow[sink_4,sink_20] -14
WCcheckFlow[sink_18,sink_6] 3
WCcheckFlow[sink_25,innode_8] -36
WCcheckFlow[sink_6,sink_7] 0
WCcheckFlow[sink_6,sink_22] 2
WCcheckFlow[sink_7,sink_24] 3
WCcheckFlow[sink_22,sink_1] 1
WCcheckFlow[sink_24,sink_21] 2
WCcheckFlow[sink_21,sink_12] 1
WCcheckFlow[sink_7,sink_5] -4
WCcheckFlow[sink_5,sink_17] -5
WCcheckFlow[sink_17,sink_4] -7
WCcheckFlow[sink_17,sink_8] 1
WCcheckFlow[sink_3,sink_23] 1
WCcheckFlow[sink_8,sink_20] 0
WCcheckFlow[sink_25,sink_20] 15
WCcheckFlow[sink_25,sink_15] 6
WCcheckFlow[sink_15,sink_29] 5
WCcheckFlow[sink_29,sink_28] 1
WCcheckFlow[sink_29,sink_2] 1
WCcheckFlow[sink_2,sink_15] 0
WCcheckFlow[sink_29,innode_7] 2
WCcheckFlow[innode_4,sink_19] -4
WCcheckFlow[sink_19,innode_3] -5
WCcheckFlow[innode_4,innode_5] 2
WCcheckFlow[sink_27,innode_5] -1
WCcheckFlow[sink_27,sink_19] 0
WCcheckFlow[sink_10,sink_11] 3
WCcheckFlow[sink_10,innode_2] 1
WCcheckFlow[sink_10,innode_3] 6
WCcheckFlow[innode_6,sink_25] -14
WCcheckFlow[sink_11,innode_1] 2
WCcheckFlow[sink_19,innode_2] 0
WCcheckFlow[source_3,innode_4] -1
WCcheckFlow[source_2,innode_7] -1
WCcheckFlow[sink_3,innode_8] 37
